NAME 
ROWS
 N  OBJ
 L  R0      
 E  R1      
 E  R2      
 E  R3      
 E  R4      
 E  R5      
 E  R6      
 E  R7      
 E  R8      
 E  R9      
 E  R10     
 E  R11     
 E  R12     
 E  R13     
 E  R14     
 E  R15     
 E  R16     
 E  R17     
 E  R18     
 E  R19     
 E  R20     
 E  R21     
 E  R22     
 E  R23     
 E  R24     
 E  R25     
COLUMNS
    MARKER    'MARKER'                 'INTORG'
    I0(10)    OBJ       -149
    I0(10)    R0        -165
    I0(10)    R1        16
    I0(10)    R4        1
    I0(10)    R5        16
    I0(10)    R6        12
    I0(10)    R8        6
    I0(10)    R9        8
    I0(10)    R12       19
    I0(10)    R13       6
    I0(10)    R25       1
    I1(11)    OBJ       57
    I1(11)    R0        -19
    I1(11)    R1        12
    I1(11)    R4        17
    I1(11)    R5        18
    I1(11)    R9        13
    I1(11)    R10       9
    I1(11)    R11       8
    I1(11)    R12       8
    I1(11)    R13       9
    I1(11)    R15       9
    I1(11)    R25       1
    I2(13)    OBJ       -174
    I2(13)    R0        165
    I2(13)    R1        2
    I2(13)    R2        1
    I2(13)    R3        10
    I2(13)    R5        13
    I2(13)    R6        1
    I2(13)    R7        16
    I2(13)    R8        3
    I2(13)    R10       18
    I2(13)    R12       8
    I2(13)    R14       4
    I2(13)    R15       14
    I2(13)    R25       1
    I3(10)    OBJ       140
    I3(10)    R0        -50
    I3(10)    R3        12
    I3(10)    R4        11
    I3(10)    R8        14
    I3(10)    R10       6
    I3(10)    R11       12
    I3(10)    R12       3
    I3(10)    R13       7
    I3(10)    R15       -1
    I3(10)    R25       1
    I4(10)    OBJ       -111
    I4(10)    R0        57
    I4(10)    R2        19
    I4(10)    R3        2
    I4(10)    R4        10
    I4(10)    R8        1
    I4(10)    R9        17
    I4(10)    R10       -1
    I4(10)    R12       10
    I4(10)    R14       11
    I4(10)    R25       1
    I5(13)    OBJ       -122
    I5(13)    R0        -172
    I5(13)    R2        13
    I5(13)    R3        11
    I5(13)    R4        -1
    I5(13)    R5        19
    I5(13)    R7        3
    I5(13)    R8        2
    I5(13)    R9        9
    I5(13)    R10       1
    I5(13)    R12       2
    I5(13)    R14       7
    I5(13)    R15       3
    I5(13)    R25       1
    I6(13)    OBJ       186
    I6(13)    R0        54
    I6(13)    R1        -1
    I6(13)    R3        16
    I6(13)    R6        -1
    I6(13)    R7        7
    I6(13)    R8        11
    I6(13)    R9        16
    I6(13)    R10       -1
    I6(13)    R12       -1
    I6(13)    R13       11
    I6(13)    R14       11
    I6(13)    R15       14
    I6(13)    R25       1
    I7(13)    OBJ       -170
    I7(13)    R0        -180
    I7(13)    R1        6
    I7(13)    R2        14
    I7(13)    R4        16
    I7(13)    R5        16
    I7(13)    R7        2
    I7(13)    R8        19
    I7(13)    R9        1
    I7(13)    R10       12
    I7(13)    R11       7
    I7(13)    R13       2
    I7(13)    R14       13
    I7(13)    R25       1
    I8(11)    OBJ       96
    I8(11)    R0        187
    I8(11)    R1        12
    I8(11)    R5        13
    I8(11)    R7        19
    I8(11)    R8        11
    I8(11)    R9        3
    I8(11)    R10       17
    I8(11)    R11       17
    I8(11)    R14       8
    I8(11)    R15       1
    I8(11)    R25       1
    I9(12)    OBJ       1
    I9(12)    R0        81
    I9(12)    R1        6
    I9(12)    R2        3
    I9(12)    R3        12
    I9(12)    R4        14
    I9(12)    R6        10
    I9(12)    R11       18
    I9(12)    R12       9
    I9(12)    R13       3
    I9(12)    R14       12
    I9(12)    R15       10
    I9(12)    R25       1
    I10(9)    OBJ       178
    I10(9)    R0        -69
    I10(9)    R2        13
    I10(9)    R3        14
    I10(9)    R6        6
    I10(9)    R9        3
    I10(9)    R12       3
    I10(9)    R14       13
    I10(9)    R15       7
    I10(9)    R25       1
    I11(11)   OBJ       199
    I11(11)   R0        -97
    I11(11)   R1        15
    I11(11)   R2        13
    I11(11)   R3        18
    I11(11)   R4        11
    I11(11)   R5        14
    I11(11)   R7        18
    I11(11)   R8        2
    I11(11)   R11       7
    I11(11)   R13       4
    I11(11)   R25       1
    I12(12)   OBJ       -112
    I12(12)   R0        4
    I12(12)   R1        10
    I12(12)   R2        17
    I12(12)   R3        16
    I12(12)   R4        6
    I12(12)   R5        16
    I12(12)   R7        6
    I12(12)   R10       8
    I12(12)   R11       -1
    I12(12)   R14       9
    I12(12)   R15       18
    I12(12)   R25       1
    I13(12)   OBJ       -42
    I13(12)   R0        -174
    I13(12)   R1        4
    I13(12)   R2        9
    I13(12)   R4        18
    I13(12)   R5        -1
    I13(12)   R7        9
    I13(12)   R8        6
    I13(12)   R9        14
    I13(12)   R10       2
    I13(12)   R11       13
    I13(12)   R12       5
    I13(12)   R25       1
    I14(8)    OBJ       -182
    I14(8)    R0        173
    I14(8)    R1        10
    I14(8)    R4        17
    I14(8)    R6        3
    I14(8)    R8        15
    I14(8)    R9        4
    I14(8)    R10       1
    I14(8)    R25       1
    MARKER    'MARKER'                 'INTEND'
    C15(18)   OBJ       -2
    C15(18)   R2        9
    C15(18)   R3        12
    C15(18)   R4        1
    C15(18)   R5        10
    C15(18)   R6        2
    C15(18)   R7        13
    C15(18)   R8        6
    C15(18)   R9        10
    C15(18)   R10       3
    C15(18)   R11       -1
    C15(18)   R13       8
    C15(18)   R14       12
    C15(18)   R16       16
    C15(18)   R17       17
    C15(18)   R20       16
    C15(18)   R22       -1
    C15(18)   R23       10
    C15(18)   R24       11
    C16(18)   OBJ       -8
    C16(18)   R0        5
    C16(18)   R1        4
    C16(18)   R2        7
    C16(18)   R4        10
    C16(18)   R6        -1
    C16(18)   R7        3
    C16(18)   R8        19
    C16(18)   R9        7
    C16(18)   R10       14
    C16(18)   R13       2
    C16(18)   R14       14
    C16(18)   R17       4
    C16(18)   R19       1
    C16(18)   R20       5
    C16(18)   R21       -1
    C16(18)   R22       7
    C16(18)   R23       12
    C16(18)   R24       18
    C17(16)   OBJ       1
    C17(16)   R0        -10
    C17(16)   R2        -1
    C17(16)   R4        13
    C17(16)   R5        9
    C17(16)   R6        3
    C17(16)   R7        12
    C17(16)   R8        5
    C17(16)   R9        8
    C17(16)   R10       -1
    C17(16)   R12       10
    C17(16)   R13       14
    C17(16)   R14       14
    C17(16)   R15       15
    C17(16)   R16       16
    C17(16)   R18       5
    C17(16)   R22       15
    C18(15)   OBJ       -8
    C18(15)   R0        8
    C18(15)   R1        3
    C18(15)   R2        1
    C18(15)   R4        18
    C18(15)   R6        19
    C18(15)   R7        14
    C18(15)   R11       1
    C18(15)   R12       8
    C18(15)   R13       7
    C18(15)   R14       -1
    C18(15)   R15       14
    C18(15)   R16       13
    C18(15)   R18       15
    C18(15)   R22       10
    C18(15)   R24       10
    C19(18)   OBJ       6
    C19(18)   R0        6
    C19(18)   R1        19
    C19(18)   R2        -1
    C19(18)   R4        10
    C19(18)   R5        16
    C19(18)   R6        17
    C19(18)   R7        11
    C19(18)   R9        12
    C19(18)   R10       5
    C19(18)   R11       4
    C19(18)   R12       9
    C19(18)   R15       18
    C19(18)   R16       17
    C19(18)   R17       4
    C19(18)   R19       6
    C19(18)   R20       2
    C19(18)   R21       6
    C19(18)   R24       4
    C20(18)   OBJ       -7
    C20(18)   R0        -6
    C20(18)   R1        5
    C20(18)   R2        1
    C20(18)   R3        4
    C20(18)   R4        17
    C20(18)   R5        10
    C20(18)   R6        17
    C20(18)   R8        5
    C20(18)   R9        12
    C20(18)   R10       17
    C20(18)   R11       5
    C20(18)   R12       9
    C20(18)   R13       15
    C20(18)   R16       5
    C20(18)   R20       5
    C20(18)   R21       5
    C20(18)   R22       19
    C20(18)   R24       3
    C21(20)   OBJ       -9
    C21(20)   R0        7
    C21(20)   R1        11
    C21(20)   R2        19
    C21(20)   R3        17
    C21(20)   R4        16
    C21(20)   R5        13
    C21(20)   R6        16
    C21(20)   R7        1
    C21(20)   R8        16
    C21(20)   R10       7
    C21(20)   R12       2
    C21(20)   R13       13
    C21(20)   R16       9
    C21(20)   R17       1
    C21(20)   R18       13
    C21(20)   R19       12
    C21(20)   R20       16
    C21(20)   R21       10
    C21(20)   R23       -1
    C21(20)   R24       7
    C22(12)   OBJ       5
    C22(12)   R0        -10
    C22(12)   R2        2
    C22(12)   R3        15
    C22(12)   R9        16
    C22(12)   R13       16
    C22(12)   R14       14
    C22(12)   R15       10
    C22(12)   R16       13
    C22(12)   R18       18
    C22(12)   R22       8
    C22(12)   R23       7
    C22(12)   R24       6
    C23(16)   OBJ       -3
    C23(16)   R0        1
    C23(16)   R2        1
    C23(16)   R3        12
    C23(16)   R4        2
    C23(16)   R5        -1
    C23(16)   R6        8
    C23(16)   R11       13
    C23(16)   R12       -1
    C23(16)   R13       10
    C23(16)   R16       3
    C23(16)   R17       18
    C23(16)   R18       5
    C23(16)   R19       10
    C23(16)   R20       14
    C23(16)   R21       19
    C23(16)   R23       12
    C24(17)   R0        -3
    C24(17)   R1        5
    C24(17)   R2        19
    C24(17)   R3        15
    C24(17)   R4        -1
    C24(17)   R7        7
    C24(17)   R11       14
    C24(17)   R12       17
    C24(17)   R13       19
    C24(17)   R14       18
    C24(17)   R15       5
    C24(17)   R17       12
    C24(17)   R18       15
    C24(17)   R20       19
    C24(17)   R21       8
    C24(17)   R22       17
    C24(17)   R24       6
    C25(1)    R1        1
    C26(1)    R2        1
    C27(1)    R3        1
    C28(1)    R4        1
    C29(1)    R5        1
    C30(1)    R6        1
    C31(1)    R7        1
    C32(1)    R8        1
    C33(1)    R9        1
    C34(1)    R10       1
    C35(1)    R11       1
    C36(1)    R12       1
    C37(1)    R13       1
    C38(1)    R14       1
    C39(1)    R15       1
    C40(1)    R16       1
    C41(1)    R17       1
    C42(1)    R18       1
    C43(1)    R19       1
    C44(1)    R20       1
    C45(1)    R21       1
    C46(1)    R22       1
    C47(1)    R23       1
    C48(1)    R24       1
    C49(1)    R25       1
RHS
    RHS1      R0        4.9319791666666669e+02
    RHS1      R1        62
    RHS1      R2        92
    RHS1      R3        66
    RHS1      R4        52
    RHS1      R5        66
    RHS1      R6        99
    RHS1      R7        98
    RHS1      R8        87
    RHS1      R9        74
    RHS1      R10       72
    RHS1      R11       67
    RHS1      R12       69
    RHS1      R13       82
    RHS1      R14       58
    RHS1      R15       70
    RHS1      R16       56
    RHS1      R17       89
    RHS1      R18       59
    RHS1      R19       76
    RHS1      R20       64
    RHS1      R21       58
    RHS1      R22       54
    RHS1      R23       71
    RHS1      R24       87
    RHS1      R25       5
BOUNDS
 UP BND1      I0(10)    2
 UP BND1      I1(11)    2
 UP BND1      I2(13)    2
 UP BND1      I3(10)    2
 UP BND1      I4(10)    2
 UP BND1      I5(13)    2
 UP BND1      I6(13)    2
 UP BND1      I7(13)    2
 UP BND1      I8(11)    2
 UP BND1      I9(12)    2
 UP BND1      I10(9)    2
 UP BND1      I11(11)   2
 UP BND1      I12(12)   2
 UP BND1      I13(12)   2
 UP BND1      I14(8)    2
ENDATA
